
Log started (V11.0.0) Tue May 13 08:09:35 2008

Tried aggregator 1 time.
Reduced MIP has 110 rows, 1001 columns, and 2010 nonzeros.
Presolve time =    0.02 sec.
Clique table members: 100.
MIP emphasis: balance optimality and feasibility.
MIP search method: dynamic search.
Parallel mode: none, using 1 thread.
Root relaxation solution time =    0.02 sec.

        Nodes                                         Cuts/
   Node  Left     Objective  IInf  Best Integer     Best Node    ItCnt     Gap

*     0+    0                        10903.0000     1012.5886      144   90.71%
*     0+    0                         1020.0000     1012.5886      144    0.73%
      0     0     1013.0000    14     1020.0000      Fract: 7      166    0.69%
*     0+    0                         1017.0000     1013.0000      166    0.39%
      0     2     1013.0000    14     1017.0000     1013.0000      166    0.39%
    100    78     1015.0000    11     1017.0000     1013.0000     2186    0.39%
    200   121     1013.0000    14     1017.0000     1013.0000     5499    0.39%
*   210+   59                         1015.0000     1013.0000     5669    0.20%
    300   128     1013.0000    18     1015.0000     1013.0000     6916    0.20%
    400   205     1014.0000    16     1015.0000     1013.0000     8529    0.20%
    500   272     1014.0000    13     1015.0000     1014.0000    11213    0.10%
    600   254     1014.0000    20     1015.0000     1014.0000    15001    0.10%
    700   188     1014.0000    24     1015.0000     1014.0000    18811    0.10%
    800   119    infeasible           1015.0000     1014.0000    22006    0.10%
    900   106     1014.0000    30     1015.0000     1014.0000    28332    0.10%
   1000   144     1014.0000    18     1015.0000     1014.0000    32418    0.10%
Elapsed time =   4.50 sec. (tree size =  0.05 MB, solutions = 4)
   1100   178     1014.0000    21     1015.0000     1014.0000    37917    0.10%
   1200   208     1014.0000    14     1015.0000     1014.0000    41994    0.10%
*  1293+    1                         1014.0000     1014.0000    51629    0.00%

Cover cuts applied:  105
Mixed integer rounding cuts applied:  7
Gomory fractional cuts applied:  8

Solution pool: 5 solutions saved.

MIP - Integer optimal solution:  Objective = 1.0140000000e+003
Solution time =    6.36 sec.  Iterations = 51629  Nodes = 1293


Incumbent solution
Variable Name           Solution Value
Cmax                       1014.000000
X_1_6                         1.000000
X_2_7                         1.000000
X_3_3                         1.000000
X_4_4                         1.000000
X_5_2                         1.000000
X_6_8                         1.000000
X_7_6                         1.000000
X_8_4                         1.000000
X_9_8                         1.000000
X_10_5                        1.000000
X_11_6                        1.000000
X_12_2                        1.000000
X_13_2                        1.000000
X_14_9                        1.000000
X_15_1                        1.000000
X_16_10                       1.000000
X_17_8                        1.000000
X_18_1                        1.000000
X_19_10                       1.000000
X_20_10                       1.000000
X_21_5                        1.000000
X_22_10                       1.000000
X_23_7                        1.000000
X_24_2                        1.000000
X_25_7                        1.000000
X_26_5                        1.000000
X_27_7                        1.000000
X_28_9                        1.000000
X_29_8                        1.000000
X_30_5                        1.000000
X_31_3                        1.000000
X_32_3                        1.000000
X_33_6                        1.000000
X_34_5                        1.000000
X_35_8                        1.000000
X_36_9                        1.000000
X_37_10                       1.000000
X_38_4                        1.000000
X_39_3                        1.000000
X_40_7                        1.000000
X_41_1                        1.000000
X_42_4                        1.000000
X_43_7                        1.000000
X_44_9                        1.000000
X_45_7                        1.000000
X_46_8                        1.000000
X_47_3                        1.000000
X_48_1                        1.000000
X_49_5                        1.000000
X_50_10                       1.000000
X_51_4                        1.000000
X_52_2                        1.000000
X_53_8                        1.000000
X_54_4                        1.000000
X_55_2                        1.000000
X_56_6                        1.000000
X_57_7                        1.000000
X_58_5                        1.000000
X_59_5                        1.000000
X_60_6                        1.000000
X_61_2                        1.000000
X_62_6                        1.000000
X_63_7                        1.000000
X_64_10                       1.000000
X_65_9                        1.000000
X_66_9                        1.000000
X_67_4                        1.000000
X_68_4                        1.000000
X_69_9                        1.000000
X_70_3                        1.000000
X_71_5                        1.000000
X_72_3                        1.000000
X_73_3                        1.000000
X_74_3                        1.000000
X_75_1                        1.000000
X_76_6                        1.000000
X_77_10                       1.000000
X_78_7                        1.000000
X_79_1                        1.000000
X_80_2                        1.000000
X_81_10                       1.000000
X_82_4                        1.000000
X_83_1                        1.000000
X_84_6                        1.000000
X_85_2                        1.000000
X_86_2                        1.000000
X_87_1                        1.000000
X_88_1                        1.000000
X_89_9                        1.000000
X_90_8                        1.000000
X_91_10                       1.000000
X_92_6                        1.000000
X_93_1                        1.000000
X_94_3                        1.000000
X_95_4                        1.000000
X_96_8                        1.000000
X_97_8                        1.000000
X_98_5                        1.000000
X_99_9                        1.000000
X_100_9                       1.000000
All other variables in the range 1-1001 are 0.
